20 -1742690843
30 -1713360488
40 -1713360488
50 -1713360488
60 -1689865131
70 -1689865131
80 -1689865131
90 -1689865131
100 -1689865131
110 -1689865131
120 -1689865131
130 -1689865131
140 -1677031378
150 -1677031378
160 -1677031378
170 -1677031378
180 -1677031378
190 -1677031378
200 -1677031378
210 -1677031378
220 -1677031378
230 -1677031378
240 -1677031378
250 -1673157057
260 -1673157057
270 -1673157057
280 -1673157057
290 -1659739707
300 -1649114374
310 -1649114374
320 -1649114374
330 -1649114374
340 -1649114374
350 -1649114374
360 -1649114374
370 -1649114374
380 -1649114374
390 -1649114374
400 -1649114374
410 -1649114374
420 -1649114374
430 -1649114374
440 -1649114374
450 -1649114374
460 -1649114374
470 -1649114374
480 -1649114374
490 -1649114374
500 -1649114374
510 -1649114374
520 -1649114374
530 -1649114374
540 -1649114374
550 -1649114374
560 -1649114374
570 -1649114374
580 -1649114374
590 -1649114374
600 -1649114374
610 -1649114374
620 -1649114374
630 -1649114374
640 -1649114374
650 -1649114374
